c description: Tseitin formula on Random 4-regular graph of 90 vertices, with odd charge
c generator: CNFgen (0.9.2)
c copyright: (C) 2012-2022 Massimo Lauria <massimo.lauria@uniroma1.it>
c url: https://massimolauria.net/cnfgen
c command line: cnfgen tseitin 90 4
c
p cnf 180 720
1 2 3 4 0
1 2 -3 -4 0
1 -2 3 -4 0
1 -2 -3 4 0
-1 2 3 -4 0
-1 2 -3 4 0
-1 -2 3 4 0
-1 -2 -3 -4 0
5 6 7 -8 0
5 6 -7 8 0
5 -6 7 8 0
5 -6 -7 -8 0
-5 6 7 8 0
-5 6 -7 -8 0
-5 -6 7 -8 0
-5 -6 -7 8 0
9 10 11 12 0
9 10 -11 -12 0
9 -10 11 -12 0
9 -10 -11 12 0
-9 10 11 -12 0
-9 10 -11 12 0
-9 -10 11 12 0
-9 -10 -11 -12 0
13 14 15 -16 0
13 14 -15 16 0
13 -14 15 16 0
13 -14 -15 -16 0
-13 14 15 16 0
-13 14 -15 -16 0
-13 -14 15 -16 0
-13 -14 -15 16 0
13 17 18 -19 0
13 17 -18 19 0
13 -17 18 19 0
13 -17 -18 -19 0
-13 17 18 19 0
-13 17 -18 -19 0
-13 -17 18 -19 0
-13 -17 -18 19 0
20 21 22 23 0
20 21 -22 -23 0
20 -21 22 -23 0
20 -21 -22 23 0
-20 21 22 -23 0
-20 21 -22 23 0
-20 -21 22 23 0
-20 -21 -22 -23 0
24 25 26 -27 0
24 25 -26 27 0
24 -25 26 27 0
24 -25 -26 -27 0
-24 25 26 27 0
-24 25 -26 -27 0
-24 -25 26 -27 0
-24 -25 -26 27 0
24 28 29 30 0
24 28 -29 -30 0
24 -28 29 -30 0
24 -28 -29 30 0
-24 28 29 -30 0
-24 28 -29 30 0
-24 -28 29 30 0
-24 -28 -29 -30 0
20 28 31 32 0
20 28 -31 -32 0
20 -28 31 -32 0
20 -28 -31 32 0
-20 28 31 -32 0
-20 28 -31 32 0
-20 -28 31 32 0
-20 -28 -31 -32 0
9 33 34 35 0
9 33 -34 -35 0
9 -33 34 -35 0
9 -33 -34 35 0
-9 33 34 -35 0
-9 33 -34 35 0
-9 -33 34 35 0
-9 -33 -34 -35 0
10 36 37 -38 0
10 36 -37 38 0
10 -36 37 38 0
10 -36 -37 -38 0
-10 36 37 38 0
-10 36 -37 -38 0
-10 -36 37 -38 0
-10 -36 -37 38 0
21 39 40 -41 0
21 39 -40 41 0
21 -39 40 41 0
21 -39 -40 -41 0
-21 39 40 41 0
-21 39 -40 -41 0
-21 -39 40 -41 0
-21 -39 -40 41 0
42 43 44 -45 0
42 43 -44 45 0
42 -43 44 45 0
42 -43 -44 -45 0
-42 43 44 45 0
-42 43 -44 -45 0
-42 -43 44 -45 0
-42 -43 -44 45 0
46 47 48 49 0
46 47 -48 -49 0
46 -47 48 -49 0
46 -47 -48 49 0
-46 47 48 -49 0
-46 47 -48 49 0
-46 -47 48 49 0
-46 -47 -48 -49 0
5 50 51 52 0
5 50 -51 -52 0
5 -50 51 -52 0
5 -50 -51 52 0
-5 50 51 -52 0
-5 50 -51 52 0
-5 -50 51 52 0
-5 -50 -51 -52 0
53 54 55 56 0
53 54 -55 -56 0
53 -54 55 -56 0
53 -54 -55 56 0
-53 54 55 -56 0
-53 54 -55 56 0
-53 -54 55 56 0
-53 -54 -55 -56 0
57 58 59 60 0
57 58 -59 -60 0
57 -58 59 -60 0
57 -58 -59 60 0
-57 58 59 -60 0
-57 58 -59 60 0
-57 -58 59 60 0
-57 -58 -59 -60 0
57 61 62 -63 0
57 61 -62 63 0
57 -61 62 63 0
57 -61 -62 -63 0
-57 61 62 63 0
-57 61 -62 -63 0
-57 -61 62 -63 0
-57 -61 -62 63 0
61 64 65 -66 0
61 64 -65 66 0
61 -64 65 66 0
61 -64 -65 -66 0
-61 64 65 66 0
-61 64 -65 -66 0
-61 -64 65 -66 0
-61 -64 -65 66 0
50 67 68 -69 0
50 67 -68 69 0
50 -67 68 69 0
50 -67 -68 -69 0
-50 67 68 69 0
-50 67 -68 -69 0
-50 -67 68 -69 0
-50 -67 -68 69 0
70 71 72 73 0
70 71 -72 -73 0
70 -71 72 -73 0
70 -71 -72 73 0
-70 71 72 -73 0
-70 71 -72 73 0
-70 -71 72 73 0
-70 -71 -72 -73 0
46 74 75 -76 0
46 74 -75 76 0
46 -74 75 76 0
46 -74 -75 -76 0
-46 74 75 76 0
-46 74 -75 -76 0
-46 -74 75 -76 0
-46 -74 -75 76 0
77 78 79 80 0
77 78 -79 -80 0
77 -78 79 -80 0
77 -78 -79 80 0
-77 78 79 -80 0
-77 78 -79 80 0
-77 -78 79 80 0
-77 -78 -79 -80 0
1 81 82 -83 0
1 81 -82 83 0
1 -81 82 83 0
1 -81 -82 -83 0
-1 81 82 83 0
-1 81 -82 -83 0
-1 -81 82 -83 0
-1 -81 -82 83 0
36 84 85 86 0
36 84 -85 -86 0
36 -84 85 -86 0
36 -84 -85 86 0
-36 84 85 -86 0
-36 84 -85 86 0
-36 -84 85 86 0
-36 -84 -85 -86 0
87 88 89 -90 0
87 88 -89 90 0
87 -88 89 90 0
87 -88 -89 -90 0
-87 88 89 90 0
-87 88 -89 -90 0
-87 -88 89 -90 0
-87 -88 -89 90 0
91 92 93 94 0
91 92 -93 -94 0
91 -92 93 -94 0
91 -92 -93 94 0
-91 92 93 -94 0
-91 92 -93 94 0
-91 -92 93 94 0
-91 -92 -93 -94 0
39 95 96 97 0
39 95 -96 -97 0
39 -95 96 -97 0
39 -95 -96 97 0
-39 95 96 -97 0
-39 95 -96 97 0
-39 -95 96 97 0
-39 -95 -96 -97 0
47 98 99 -100 0
47 98 -99 100 0
47 -98 99 100 0
47 -98 -99 -100 0
-47 98 99 100 0
-47 98 -99 -100 0
-47 -98 99 -100 0
-47 -98 -99 100 0
6 101 102 -103 0
6 101 -102 103 0
6 -101 102 103 0
6 -101 -102 -103 0
-6 101 102 103 0
-6 101 -102 -103 0
-6 -101 102 -103 0
-6 -101 -102 103 0
64 101 104 -105 0
64 101 -104 105 0
64 -101 104 105 0
64 -101 -104 -105 0
-64 101 104 105 0
-64 101 -104 -105 0
-64 -101 104 -105 0
-64 -101 -104 105 0
51 95 106 107 0
51 95 -106 -107 0
51 -95 106 -107 0
51 -95 -106 107 0
-51 95 106 -107 0
-51 95 -106 107 0
-51 -95 106 107 0
-51 -95 -106 -107 0
7 67 108 -109 0
7 67 -108 109 0
7 -67 108 109 0
7 -67 -108 -109 0
-7 67 108 109 0
-7 67 -108 -109 0
-7 -67 108 -109 0
-7 -67 -108 109 0
110 111 112 113 0
110 111 -112 -113 0
110 -111 112 -113 0
110 -111 -112 113 0
-110 111 112 -113 0
-110 111 -112 113 0
-110 -111 112 113 0
-110 -111 -112 -113 0
104 110 114 -115 0
104 110 -114 115 0
104 -110 114 115 0
104 -110 -114 -115 0
-104 110 114 115 0
-104 110 -114 -115 0
-104 -110 114 -115 0
-104 -110 -114 115 0
111 116 117 118 0
111 116 -117 -118 0
111 -116 117 -118 0
111 -116 -117 118 0
-111 116 117 -118 0
-111 116 -117 118 0
-111 -116 117 118 0
-111 -116 -117 -118 0
40 74 119 120 0
40 74 -119 -120 0
40 -74 119 -120 0
40 -74 -119 120 0
-40 74 119 -120 0
-40 74 -119 120 0
-40 -74 119 120 0
-40 -74 -119 -120 0
8 87 121 122 0
8 87 -121 -122 0
8 -87 121 -122 0
8 -87 -121 122 0
-8 87 121 -122 0
-8 87 -121 122 0
-8 -87 121 122 0
-8 -87 -121 -122 0
2 29 123 124 0
2 29 -123 -124 0
2 -29 123 -124 0
2 -29 -123 124 0
-2 29 123 -124 0
-2 29 -123 124 0
-2 -29 123 124 0
-2 -29 -123 -124 0
68 114 125 -126 0
68 114 -125 126 0
68 -114 125 126 0
68 -114 -125 -126 0
-68 114 125 126 0
-68 114 -125 -126 0
-68 -114 125 -126 0
-68 -114 -125 126 0
112 127 128 129 0
112 127 -128 -129 0
112 -127 128 -129 0
112 -127 -128 129 0
-112 127 128 -129 0
-112 127 -128 129 0
-112 -127 128 129 0
-112 -127 -128 -129 0
17 70 96 -123 0
17 70 -96 123 0
17 -70 96 123 0
17 -70 -96 -123 0
-17 70 96 123 0
-17 70 -96 -123 0
-17 -70 96 -123 0
-17 -70 -96 123 0
25 33 65 130 0
25 33 -65 -130 0
25 -33 65 -130 0
25 -33 -65 130 0
-25 33 65 -130 0
-25 33 -65 130 0
-25 -33 65 130 0
-25 -33 -65 -130 0
84 105 116 131 0
84 105 -116 -131 0
84 -105 116 -131 0
84 -105 -116 131 0
-84 105 116 -131 0
-84 105 -116 131 0
-84 -105 116 131 0
-84 -105 -116 -131 0
42 75 81 132 0
42 75 -81 -132 0
42 -75 81 -132 0
42 -75 -81 132 0
-42 75 81 -132 0
-42 75 -81 132 0
-42 -75 81 132 0
-42 -75 -81 -132 0
85 133 134 -135 0
85 133 -134 135 0
85 -133 134 135 0
85 -133 -134 -135 0
-85 133 134 135 0
-85 133 -134 -135 0
-85 -133 134 -135 0
-85 -133 -134 135 0
133 136 137 138 0
133 136 -137 -138 0
133 -136 137 -138 0
133 -136 -137 138 0
-133 136 137 -138 0
-133 136 -137 138 0
-133 -136 137 138 0
-133 -136 -137 -138 0
53 71 106 139 0
53 71 -106 -139 0
53 -71 106 -139 0
53 -71 -106 139 0
-53 71 106 -139 0
-53 71 -106 139 0
-53 -71 106 139 0
-53 -71 -106 -139 0
62 140 141 -142 0
62 140 -141 142 0
62 -140 141 142 0
62 -140 -141 -142 0
-62 140 141 142 0
-62 140 -141 -142 0
-62 -140 141 -142 0
-62 -140 -141 142 0
30 143 144 -145 0
30 143 -144 145 0
30 -143 144 145 0
30 -143 -144 -145 0
-30 143 144 145 0
-30 143 -144 -145 0
-30 -143 144 -145 0
-30 -143 -144 145 0
37 108 140 -146 0
37 108 -140 146 0
37 -108 140 146 0
37 -108 -140 -146 0
-37 108 140 146 0
-37 108 -140 -146 0
-37 -108 140 -146 0
-37 -108 -140 146 0
3 98 127 -147 0
3 98 -127 147 0
3 -98 127 147 0
3 -98 -127 -147 0
-3 98 127 147 0
-3 98 -127 -147 0
-3 -98 127 -147 0
-3 -98 -127 147 0
11 31 58 121 0
11 31 -58 -121 0
11 -31 58 -121 0
11 -31 -58 121 0
-11 31 58 -121 0
-11 31 -58 121 0
-11 -31 58 121 0
-11 -31 -58 -121 0
88 148 149 -150 0
88 148 -149 150 0
88 -148 149 150 0
88 -148 -149 -150 0
-88 148 149 150 0
-88 148 -149 -150 0
-88 -148 149 -150 0
-88 -148 -149 150 0
82 99 151 152 0
82 99 -151 -152 0
82 -99 151 -152 0
82 -99 -151 152 0
-82 99 151 -152 0
-82 99 -151 152 0
-82 -99 151 152 0
-82 -99 -151 -152 0
122 153 154 -155 0
122 153 -154 155 0
122 -153 154 155 0
122 -153 -154 -155 0
-122 153 154 155 0
-122 153 -154 -155 0
-122 -153 154 -155 0
-122 -153 -154 155 0
34 89 156 157 0
34 89 -156 -157 0
34 -89 156 -157 0
34 -89 -156 157 0
-34 89 156 -157 0
-34 89 -156 157 0
-34 -89 156 157 0
-34 -89 -156 -157 0
43 134 143 -158 0
43 134 -143 158 0
43 -134 143 158 0
43 -134 -143 -158 0
-43 134 143 158 0
-43 134 -143 -158 0
-43 -134 143 -158 0
-43 -134 -143 158 0
83 135 159 160 0
83 135 -159 -160 0
83 -135 159 -160 0
83 -135 -159 160 0
-83 135 159 -160 0
-83 135 -159 160 0
-83 -135 159 160 0
-83 -135 -159 -160 0
141 161 162 -163 0
141 161 -162 163 0
141 -161 162 163 0
141 -161 -162 -163 0
-141 161 162 163 0
-141 161 -162 -163 0
-141 -161 162 -163 0
-141 -161 -162 163 0
77 117 164 -165 0
77 117 -164 165 0
77 -117 164 165 0
77 -117 -164 -165 0
-77 117 164 165 0
-77 117 -164 -165 0
-77 -117 164 -165 0
-77 -117 -164 165 0
14 86 130 -166 0
14 86 -130 166 0
14 -86 130 166 0
14 -86 -130 -166 0
-14 86 130 166 0
-14 86 -130 -166 0
-14 -86 130 -166 0
-14 -86 -130 166 0
32 52 156 167 0
32 52 -156 -167 0
32 -52 156 -167 0
32 -52 -156 167 0
-32 52 156 -167 0
-32 52 -156 167 0
-32 -52 156 167 0
-32 -52 -156 -167 0
48 124 132 -159 0
48 124 -132 159 0
48 -124 132 159 0
48 -124 -132 -159 0
-48 124 132 159 0
-48 124 -132 -159 0
-48 -124 132 -159 0
-48 -124 -132 159 0
35 136 158 168 0
35 136 -158 -168 0
35 -136 158 -168 0
35 -136 -158 168 0
-35 136 158 -168 0
-35 136 -158 168 0
-35 -136 158 168 0
-35 -136 -158 -168 0
44 97 169 170 0
44 97 -169 -170 0
44 -97 169 -170 0
44 -97 -169 170 0
-44 97 169 -170 0
-44 97 -169 170 0
-44 -97 169 170 0
-44 -97 -169 -170 0
91 153 164 171 0
91 153 -164 -171 0
91 -153 164 -171 0
91 -153 -164 171 0
-91 153 164 -171 0
-91 153 -164 171 0
-91 -153 164 171 0
-91 -153 -164 -171 0
26 69 128 -165 0
26 69 -128 165 0
26 -69 128 165 0
26 -69 -128 -165 0
-26 69 128 165 0
-26 69 -128 -165 0
-26 -69 128 -165 0
-26 -69 -128 165 0
139 154 172 -173 0
139 154 -172 173 0
139 -154 172 173 0
139 -154 -172 -173 0
-139 154 172 173 0
-139 154 -172 -173 0
-139 -154 172 -173 0
-139 -154 -172 173 0
59 90 131 160 0
59 90 -131 -160 0
59 -90 131 -160 0
59 -90 -131 160 0
-59 90 131 -160 0
-59 90 -131 160 0
-59 -90 131 160 0
-59 -90 -131 -160 0
78 92 146 -174 0
78 92 -146 174 0
78 -92 146 174 0
78 -92 -146 -174 0
-78 92 146 174 0
-78 92 -146 -174 0
-78 -92 146 -174 0
-78 -92 -146 174 0
22 144 175 176 0
22 144 -175 -176 0
22 -144 175 -176 0
22 -144 -175 176 0
-22 144 175 -176 0
-22 144 -175 176 0
-22 -144 175 176 0
-22 -144 -175 -176 0
113 161 177 -178 0
113 161 -177 178 0
113 -161 177 178 0
113 -161 -177 -178 0
-113 161 177 178 0
-113 161 -177 -178 0
-113 -161 177 -178 0
-113 -161 -177 178 0
118 151 162 172 0
118 151 -162 -172 0
118 -151 162 -172 0
118 -151 -162 172 0
-118 151 162 -172 0
-118 151 -162 172 0
-118 -151 162 172 0
-118 -151 -162 -172 0
15 100 125 169 0
15 100 -125 -169 0
15 -100 125 -169 0
15 -100 -125 169 0
-15 100 125 -169 0
-15 100 -125 169 0
-15 -100 125 169 0
-15 -100 -125 -169 0
119 163 168 171 0
119 163 -168 -171 0
119 -163 168 -171 0
119 -163 -168 171 0
-119 163 168 -171 0
-119 163 -168 171 0
-119 -163 168 171 0
-119 -163 -168 -171 0
45 155 157 -175 0
45 155 -157 175 0
45 -155 157 175 0
45 -155 -157 -175 0
-45 155 157 175 0
-45 155 -157 -175 0
-45 -155 157 -175 0
-45 -155 -157 175 0
23 66 107 173 0
23 66 -107 -173 0
23 -66 107 -173 0
23 -66 -107 173 0
-23 66 107 -173 0
-23 66 -107 173 0
-23 -66 107 173 0
-23 -66 -107 -173 0
72 126 177 179 0
72 126 -177 -179 0
72 -126 177 -179 0
72 -126 -177 179 0
-72 126 177 -179 0
-72 126 -177 179 0
-72 -126 177 179 0
-72 -126 -177 -179 0
49 174 176 -180 0
49 174 -176 180 0
49 -174 176 180 0
49 -174 -176 -180 0
-49 174 176 180 0
-49 174 -176 -180 0
-49 -174 176 -180 0
-49 -174 -176 180 0
4 79 129 -166 0
4 79 -129 166 0
4 -79 129 166 0
4 -79 -129 -166 0
-4 79 129 166 0
-4 79 -129 -166 0
-4 -79 129 -166 0
-4 -79 -129 166 0
54 145 148 -152 0
54 145 -148 152 0
54 -145 148 152 0
54 -145 -148 -152 0
-54 145 148 152 0
-54 145 -148 -152 0
-54 -145 148 -152 0
-54 -145 -148 152 0
16 76 149 170 0
16 76 -149 -170 0
16 -76 149 -170 0
16 -76 -149 170 0
-16 76 149 -170 0
-16 76 -149 170 0
-16 -76 149 170 0
-16 -76 -149 -170 0
12 41 63 115 0
12 41 -63 -115 0
12 -41 63 -115 0
12 -41 -63 115 0
-12 41 63 -115 0
-12 41 -63 115 0
-12 -41 63 115 0
-12 -41 -63 -115 0
55 80 109 -137 0
55 80 -109 137 0
55 -80 109 137 0
55 -80 -109 -137 0
-55 80 109 137 0
-55 80 -109 -137 0
-55 -80 109 -137 0
-55 -80 -109 137 0
73 93 120 167 0
73 93 -120 -167 0
73 -93 120 -167 0
73 -93 -120 167 0
-73 93 120 -167 0
-73 93 -120 167 0
-73 -93 120 167 0
-73 -93 -120 -167 0
18 56 94 -102 0
18 56 -94 102 0
18 -56 94 102 0
18 -56 -94 -102 0
-18 56 94 102 0
-18 56 -94 -102 0
-18 -56 94 -102 0
-18 -56 -94 102 0
19 38 178 179 0
19 38 -178 -179 0
19 -38 178 -179 0
19 -38 -178 179 0
-19 38 178 -179 0
-19 38 -178 179 0
-19 -38 178 179 0
-19 -38 -178 -179 0
60 103 142 150 0
60 103 -142 -150 0
60 -103 142 -150 0
60 -103 -142 150 0
-60 103 142 -150 0
-60 103 -142 150 0
-60 -103 142 150 0
-60 -103 -142 -150 0
27 138 147 -180 0
27 138 -147 180 0
27 -138 147 180 0
27 -138 -147 -180 0
-27 138 147 180 0
-27 138 -147 -180 0
-27 -138 147 -180 0
-27 -138 -147 180 0
